p cnf 90 249
1 2 3 0
4 5 6 0
7 8 9 0
10 11 12 0
13 14 15 0
16 17 18 0
19 20 21 0
22 23 24 0
25 26 27 0
28 29 30 0
31 32 33 0
34 35 36 0
37 38 39 0
40 41 42 0
43 44 45 0
46 47 48 0
49 50 51 0
52 53 54 0
55 56 57 0
58 59 60 0
61 62 63 0
64 65 66 0
67 68 69 0
70 71 72 0
73 74 75 0
76 77 78 0
79 80 81 0
82 83 84 0
85 86 87 0
88 89 90 0
-1 -2 0
-1 -3 0
-2 -3 0
-4 -5 0
-4 -6 0
-5 -6 0
-7 -8 0
-7 -9 0
-8 -9 0
-10 -11 0
-10 -12 0
-11 -12 0
-13 -14 0
-13 -15 0
-14 -15 0
-16 -17 0
-16 -18 0
-17 -18 0
-19 -20 0
-19 -21 0
-20 -21 0
-22 -23 0
-22 -24 0
-23 -24 0
-25 -26 0
-25 -27 0
-26 -27 0
-28 -29 0
-28 -30 0
-29 -30 0
-31 -32 0
-31 -33 0
-32 -33 0
-34 -35 0
-34 -36 0
-35 -36 0
-37 -38 0
-37 -39 0
-38 -39 0
-40 -41 0
-40 -42 0
-41 -42 0
-43 -44 0
-43 -45 0
-44 -45 0
-46 -47 0
-46 -48 0
-47 -48 0
-49 -50 0
-49 -51 0
-50 -51 0
-52 -53 0
-52 -54 0
-53 -54 0
-55 -56 0
-55 -57 0
-56 -57 0
-58 -59 0
-58 -60 0
-59 -60 0
-61 -62 0
-61 -63 0
-62 -63 0
-64 -65 0
-64 -66 0
-65 -66 0
-67 -68 0
-67 -69 0
-68 -69 0
-70 -71 0
-70 -72 0
-71 -72 0
-73 -74 0
-73 -75 0
-74 -75 0
-76 -77 0
-76 -78 0
-77 -78 0
-79 -80 0
-79 -81 0
-80 -81 0
-82 -83 0
-82 -84 0
-83 -84 0
-85 -86 0
-85 -87 0
-86 -87 0
-88 -89 0
-88 -90 0
-89 -90 0
-1 -37 0
-2 -38 0
-3 -39 0
-1 -46 0
-2 -47 0
-3 -48 0
-1 -58 0
-2 -59 0
-3 -60 0
-4 -13 0
-5 -14 0
-6 -15 0
-4 -43 0
-5 -44 0
-6 -45 0
-4 -82 0
-5 -83 0
-6 -84 0
-7 -43 0
-8 -44 0
-9 -45 0
-7 -52 0
-8 -53 0
-9 -54 0
-7 -64 0
-8 -65 0
-9 -66 0
-10 -22 0
-11 -23 0
-12 -24 0
-13 -25 0
-14 -26 0
-15 -27 0
-13 -55 0
-14 -56 0
-15 -57 0
-16 -46 0
-17 -47 0
-18 -48 0
-19 -31 0
-20 -32 0
-21 -33 0
-19 -55 0
-20 -56 0
-21 -57 0
-22 -28 0
-23 -29 0
-24 -30 0
-22 -88 0
-23 -89 0
-24 -90 0
-25 -43 0
-26 -44 0
-27 -45 0
-25 -58 0
-26 -59 0
-27 -60 0
-28 -40 0
-29 -41 0
-30 -42 0
-28 -61 0
-29 -62 0
-30 -63 0
-31 -82 0
-32 -83 0
-33 -84 0
-34 -61 0
-35 -62 0
-36 -63 0
-37 -40 0
-38 -41 0
-39 -42 0
-37 -73 0
-38 -74 0
-39 -75 0
-40 -61 0
-41 -62 0
-42 -63 0
-40 -82 0
-41 -83 0
-42 -84 0
-40 -85 0
-41 -86 0
-42 -87 0
-43 -61 0
-44 -62 0
-45 -63 0
-43 -88 0
-44 -89 0
-45 -90 0
-49 -70 0
-50 -71 0
-51 -72 0
-49 -73 0
-50 -74 0
-51 -75 0
-49 -79 0
-50 -80 0
-51 -81 0
-52 -76 0
-53 -77 0
-54 -78 0
-52 -82 0
-53 -83 0
-54 -84 0
-55 -58 0
-56 -59 0
-57 -60 0
-55 -73 0
-56 -74 0
-57 -75 0
-58 -70 0
-59 -71 0
-60 -72 0
-61 -73 0
-62 -74 0
-63 -75 0
-64 -67 0
-65 -68 0
-66 -69 0
-64 -70 0
-65 -71 0
-66 -72 0
-64 -82 0
-65 -83 0
-66 -84 0
-73 -82 0
-74 -83 0
-75 -84 0
